Optimize a model with 14 rows, 196 columns and 196 nonzeros
Variable types: 0 continuous, 196 integer (196 binary)
Coefficient statistics:
  Matrix range     [1e+00, 1e+00]
  Objective range  [1e+00, 1e+00]
  Bounds range     [1e+00, 1e+00]
  RHS range        [2e+00, 2e+00]
Found heuristic solution: objective 28
Presolve removed 14 rows and 196 columns
Presolve time: 0.00s
Presolve: All rows and columns removed

Explored 0 nodes (0 simplex iterations) in 0.01 seconds
Thread count was 1 (of 8 available processors)

Solution count 1: 28 

Optimal solution found (tolerance 1.00e-04)
Best objective 2.800000000000e+01, best bound 2.800000000000e+01, gap 0.0000%

Gurobi 7.5.1 (win64, Python) logging started 10/24/17 23:02:06

Academic license - for non-commercial use only
Optimize a model with 20 rows, 252 columns and 288 nonzeros
Variable types: 0 continuous, 252 integer (252 binary)
Coefficient statistics:
  Matrix range     [1e+00, 1e+00]
  Objective range  [1e+00, 1e+00]
  Bounds range     [1e+00, 1e+00]
  RHS range        [1e+00, 2e+00]
Found heuristic solution: objective 26
Presolve removed 20 rows and 252 columns
Presolve time: 0.00s
Presolve: All rows and columns removed

Explored 0 nodes (0 simplex iterations) in 0.02 seconds
Thread count was 1 (of 8 available processors)

Solution count 1: 26 

Optimal solution found (tolerance 1.00e-04)
Best objective 2.600000000000e+01, best bound 2.600000000000e+01, gap 0.0000%
Optimize a model with 272 rows, 252 columns and 540 nonzeros
Variable types: 0 continuous, 252 integer (252 binary)
Coefficient statistics:
  Matrix range     [1e+00, 1e+00]
  Objective range  [1e+00, 1e+00]
  Bounds range     [1e+00, 1e+00]
  RHS range        [1e+00, 2e+00]
Found heuristic solution: objective 26
Presolve removed 272 rows and 252 columns
Presolve time: 0.00s
Presolve: All rows and columns removed

Explored 0 nodes (0 simplex iterations) in 0.01 seconds
Thread count was 1 (of 8 available processors)

Solution count 1: 26 

Optimal solution found (tolerance 1.00e-04)
Best objective 2.600000000000e+01, best bound 2.600000000000e+01, gap 0.0000%
Optimize a model with 272 rows, 252 columns and 540 nonzeros
Variable types: 0 continuous, 252 integer (252 binary)
Coefficient statistics:
  Matrix range     [1e+00, 1e+00]
  Objective range  [1e+00, 1e+00]
  Bounds range     [1e+00, 1e+00]
  RHS range        [1e+00, 2e+00]
Found heuristic solution: objective 147
Presolve removed 272 rows and 252 columns
Presolve time: 0.00s
Presolve: All rows and columns removed

Explored 0 nodes (0 simplex iterations) in 0.01 seconds
Thread count was 1 (of 8 available processors)

Solution count 1: 147 

Optimal solution found (tolerance 1.00e-04)
Best objective 1.470000000000e+02, best bound 1.470000000000e+02, gap 0.0000%
Optimize a model with 272 rows, 252 columns and 540 nonzeros
Variable types: 0 continuous, 252 integer (252 binary)
Coefficient statistics:
  Matrix range     [1e+00, 1e+00]
  Objective range  [1e+00, 1e+00]
  Bounds range     [1e+00, 1e+00]
  RHS range        [1e+00, 2e+00]
Found heuristic solution: objective 26
Presolve removed 272 rows and 252 columns
Presolve time: 0.00s
Presolve: All rows and columns removed

Explored 0 nodes (0 simplex iterations) in 0.01 seconds
Thread count was 1 (of 8 available processors)

Solution count 1: 26 

Optimal solution found (tolerance 1.00e-04)
Best objective 2.600000000000e+01, best bound 2.600000000000e+01, gap 0.0000%
Optimize a model with 276 rows, 252 columns and 736 nonzeros
Variable types: 0 continuous, 252 integer (252 binary)
Coefficient statistics:
  Matrix range     [1e+00, 1e+00]
  Objective range  [1e+00, 1e+00]
  Bounds range     [1e+00, 1e+00]
  RHS range        [1e+00, 2e+00]
Presolve removed 252 rows and 233 columns
Presolve time: 0.00s

Explored 0 nodes (0 simplex iterations) in 0.01 seconds
Thread count was 1 (of 8 available processors)

Solution count 0

Model is infeasible
Best objective -, best bound -, gap -
Optimize a model with 276 rows, 252 columns and 736 nonzeros
Variable types: 0 continuous, 252 integer (252 binary)
Coefficient statistics:
  Matrix range     [1e+00, 1e+00]
  Objective range  [1e+00, 1e+00]
  Bounds range     [1e+00, 1e+00]
  RHS range        [1e+00, 2e+00]
Presolve removed 252 rows and 233 columns
Presolve time: 0.00s

Explored 0 nodes (0 simplex iterations) in 0.01 seconds
Thread count was 1 (of 8 available processors)

Solution count 0

Model is infeasible
Best objective -, best bound -, gap -

Gurobi 7.5.1 (win64, Python) logging started 10/25/17 00:13:26

Academic license - for non-commercial use only
Optimize a model with 276 rows, 252 columns and 736 nonzeros
Variable types: 0 continuous, 252 integer (252 binary)
Coefficient statistics:
  Matrix range     [1e+00, 1e+00]
  Objective range  [1e+00, 1e+00]
  Bounds range     [1e+00, 1e+00]
  RHS range        [1e+00, 2e+00]
Presolve removed 252 rows and 233 columns
Presolve time: 0.00s

Explored 0 nodes (0 simplex iterations) in 0.01 seconds
Thread count was 1 (of 8 available processors)

Solution count 0

Model is infeasible
Best objective -, best bound -, gap -
Optimize a model with 276 rows, 252 columns and 736 nonzeros
Variable types: 0 continuous, 252 integer (252 binary)
Coefficient statistics:
  Matrix range     [1e+00, 1e+00]
  Objective range  [1e+00, 1e+00]
  Bounds range     [1e+00, 1e+00]
  RHS range        [1e+00, 2e+00]
Presolve removed 256 rows and 235 columns
Presolve time: 0.00s

Explored 0 nodes (0 simplex iterations) in 0.01 seconds
Thread count was 1 (of 8 available processors)

Solution count 0

Model is infeasible
Best objective -, best bound -, gap -
Optimize a model with 276 rows, 252 columns and 736 nonzeros
Variable types: 0 continuous, 252 integer (252 binary)
Coefficient statistics:
  Matrix range     [1e+00, 1e+00]
  Objective range  [1e+00, 1e+00]
  Bounds range     [1e+00, 1e+00]
  RHS range        [1e+00, 2e+00]
Presolve removed 252 rows and 233 columns
Presolve time: 0.00s

Explored 0 nodes (0 simplex iterations) in 0.01 seconds
Thread count was 1 (of 8 available processors)

Solution count 0

Model is infeasible
Best objective -, best bound -, gap -
Optimize a model with 272 rows, 252 columns and 540 nonzeros
Variable types: 0 continuous, 252 integer (252 binary)
Coefficient statistics:
  Matrix range     [1e+00, 1e+00]
  Objective range  [1e+00, 1e+00]
  Bounds range     [1e+00, 1e+00]
  RHS range        [1e+00, 2e+00]
Found heuristic solution: objective 26
Presolve removed 272 rows and 252 columns
Presolve time: 0.00s
Presolve: All rows and columns removed

Explored 0 nodes (0 simplex iterations) in 0.01 seconds
Thread count was 1 (of 8 available processors)

Solution count 1: 26 

Optimal solution found (tolerance 1.00e-04)
Best objective 2.600000000000e+01, best bound 2.600000000000e+01, gap 0.0000%
Optimize a model with 276 rows, 252 columns and 736 nonzeros
Variable types: 0 continuous, 252 integer (252 binary)
Coefficient statistics:
  Matrix range     [1e+00, 1e+00]
  Objective range  [1e+00, 1e+00]
  Bounds range     [1e+00, 1e+00]
  RHS range        [1e+00, 2e+00]
Presolve removed 252 rows and 233 columns
Presolve time: 0.00s

Explored 0 nodes (0 simplex iterations) in 0.01 seconds
Thread count was 1 (of 8 available processors)

Solution count 0

Model is infeasible
Best objective -, best bound -, gap -
Optimize a model with 328 rows, 252 columns and 736 nonzeros
Variable types: 0 continuous, 252 integer (252 binary)
Coefficient statistics:
  Matrix range     [1e+00, 1e+00]
  Objective range  [1e+00, 1e+00]
  Bounds range     [1e+00, 1e+00]
  RHS range        [1e+00, 2e+00]
Found heuristic solution: objective 26
Presolve removed 280 rows and 121 columns
Presolve time: 0.00s
Presolved: 48 rows, 131 columns, 262 nonzeros
Variable types: 0 continuous, 131 integer (131 binary)

Root relaxation: cutoff, 17 iterations, 0.00 seconds

    Nodes    |    Current Node    |     Objective Bounds      |     Work
 Expl Unexpl |  Obj  Depth IntInf | Incumbent    BestBd   Gap | It/Node Time

     0     0     cutoff    0        26.00000   26.00000  0.00%     -    0s

Explored 0 nodes (17 simplex iterations) in 0.02 seconds
Thread count was 8 (of 8 available processors)

Solution count 1: 26 

Optimal solution found (tolerance 1.00e-04)
Best objective 2.600000000000e+01, best bound 2.600000000000e+01, gap 0.0000%
Optimize a model with 328 rows, 252 columns and 736 nonzeros
Variable types: 0 continuous, 252 integer (252 binary)
Coefficient statistics:
  Matrix range     [1e+00, 1e+00]
  Objective range  [1e+00, 1e+00]
  Bounds range     [1e+00, 1e+00]
  RHS range        [1e+00, 2e+00]
Found heuristic solution: objective 26
Presolve removed 280 rows and 121 columns
Presolve time: 0.00s
Presolved: 48 rows, 131 columns, 262 nonzeros
Variable types: 0 continuous, 131 integer (131 binary)

Root relaxation: cutoff, 17 iterations, 0.00 seconds

    Nodes    |    Current Node    |     Objective Bounds      |     Work
 Expl Unexpl |  Obj  Depth IntInf | Incumbent    BestBd   Gap | It/Node Time

     0     0     cutoff    0        26.00000   26.00000  0.00%     -    0s

Explored 0 nodes (17 simplex iterations) in 0.02 seconds
Thread count was 8 (of 8 available processors)

Solution count 1: 26 

Optimal solution found (tolerance 1.00e-04)
Best objective 2.600000000000e+01, best bound 2.600000000000e+01, gap 0.0000%
Optimize a model with 328 rows, 252 columns and 736 nonzeros
Variable types: 0 continuous, 252 integer (252 binary)
Coefficient statistics:
  Matrix range     [1e+00, 1e+00]
  Objective range  [1e+00, 1e+00]
  Bounds range     [1e+00, 1e+00]
  RHS range        [1e+00, 2e+00]
Found heuristic solution: objective 26
Presolve removed 280 rows and 121 columns
Presolve time: 0.00s
Presolved: 48 rows, 131 columns, 262 nonzeros
Variable types: 0 continuous, 131 integer (131 binary)

Root relaxation: cutoff, 17 iterations, 0.00 seconds

    Nodes    |    Current Node    |     Objective Bounds      |     Work
 Expl Unexpl |  Obj  Depth IntInf | Incumbent    BestBd   Gap | It/Node Time

     0     0     cutoff    0        26.00000   26.00000  0.00%     -    0s

Explored 0 nodes (17 simplex iterations) in 0.02 seconds
Thread count was 8 (of 8 available processors)

Solution count 1: 26 

Optimal solution found (tolerance 1.00e-04)
Best objective 2.600000000000e+01, best bound 2.600000000000e+01, gap 0.0000%
Optimize a model with 328 rows, 252 columns and 736 nonzeros
Variable types: 0 continuous, 252 integer (252 binary)
Coefficient statistics:
  Matrix range     [1e+00, 1e+00]
  Objective range  [1e+00, 1e+00]
  Bounds range     [1e+00, 1e+00]
  RHS range        [1e+00, 2e+00]
Presolved: 48 rows, 131 columns, 262 nonzeros

Continuing optimization...


Explored 0 nodes (17 simplex iterations) in 0.01 seconds
Thread count was 8 (of 8 available processors)

Solution count 1: 26 

Optimal solution found (tolerance 1.00e-04)
Best objective 2.600000000000e+01, best bound 2.600000000000e+01, gap 0.0000%

Gurobi 7.5.1 (win64, Python) logging started 10/25/17 00:27:45

Academic license - for non-commercial use only
Optimize a model with 328 rows, 252 columns and 736 nonzeros
Variable types: 0 continuous, 252 integer (252 binary)
Coefficient statistics:
  Matrix range     [1e+00, 1e+00]
  Objective range  [1e+00, 1e+00]
  Bounds range     [1e+00, 1e+00]
  RHS range        [1e+00, 2e+00]
Found heuristic solution: objective 26
Presolve removed 280 rows and 121 columns
Presolve time: 0.00s
Presolved: 48 rows, 131 columns, 262 nonzeros
Variable types: 0 continuous, 131 integer (131 binary)

Root relaxation: cutoff, 17 iterations, 0.00 seconds

    Nodes    |    Current Node    |     Objective Bounds      |     Work
 Expl Unexpl |  Obj  Depth IntInf | Incumbent    BestBd   Gap | It/Node Time

     0     0     cutoff    0        26.00000   26.00000  0.00%     -    0s

Explored 0 nodes (17 simplex iterations) in 0.03 seconds
Thread count was 8 (of 8 available processors)

Solution count 1: 26 

Optimal solution found (tolerance 1.00e-04)
Best objective 2.600000000000e+01, best bound 2.600000000000e+01, gap 0.0000%
Optimize a model with 328 rows, 252 columns and 736 nonzeros
Variable types: 0 continuous, 252 integer (252 binary)
Coefficient statistics:
  Matrix range     [1e+00, 1e+00]
  Objective range  [1e+00, 1e+00]
  Bounds range     [1e+00, 1e+00]
  RHS range        [1e+00, 2e+00]
Presolved: 48 rows, 131 columns, 262 nonzeros

Continuing optimization...


Explored 0 nodes (17 simplex iterations) in 0.01 seconds
Thread count was 8 (of 8 available processors)

Solution count 1: 26 

Optimal solution found (tolerance 1.00e-04)
Best objective 2.600000000000e+01, best bound 2.600000000000e+01, gap 0.0000%
Optimize a model with 328 rows, 252 columns and 736 nonzeros
Variable types: 0 continuous, 252 integer (252 binary)
Coefficient statistics:
  Matrix range     [1e+00, 1e+00]
  Objective range  [1e+00, 1e+00]
  Bounds range     [1e+00, 1e+00]
  RHS range        [1e+00, 2e+00]
Presolved: 48 rows, 131 columns, 262 nonzeros

Continuing optimization...


Explored 0 nodes (17 simplex iterations) in 0.01 seconds
Thread count was 8 (of 8 available processors)

Solution count 1: 26 

Optimal solution found (tolerance 1.00e-04)
Best objective 2.600000000000e+01, best bound 2.600000000000e+01, gap 0.0000%
Optimize a model with 328 rows, 252 columns and 736 nonzeros
Variable types: 0 continuous, 252 integer (252 binary)
Coefficient statistics:
  Matrix range     [1e+00, 1e+00]
  Objective range  [1e+00, 1e+00]
  Bounds range     [1e+00, 1e+00]
  RHS range        [1e+00, 2e+00]
Presolved: 48 rows, 131 columns, 262 nonzeros

Continuing optimization...


Explored 0 nodes (17 simplex iterations) in 0.01 seconds
Thread count was 8 (of 8 available processors)

Solution count 1: 26 

Optimal solution found (tolerance 1.00e-04)
Best objective 2.600000000000e+01, best bound 2.600000000000e+01, gap 0.0000%
Optimize a model with 328 rows, 252 columns and 736 nonzeros
Variable types: 0 continuous, 252 integer (252 binary)
Coefficient statistics:
  Matrix range     [1e+00, 1e+00]
  Objective range  [1e+00, 1e+00]
  Bounds range     [1e+00, 1e+00]
  RHS range        [1e+00, 2e+00]
Found heuristic solution: objective 26
Presolve removed 280 rows and 121 columns
Presolve time: 0.00s
Presolved: 48 rows, 131 columns, 262 nonzeros
Variable types: 0 continuous, 131 integer (131 binary)

Root relaxation: cutoff, 17 iterations, 0.00 seconds

    Nodes    |    Current Node    |     Objective Bounds      |     Work
 Expl Unexpl |  Obj  Depth IntInf | Incumbent    BestBd   Gap | It/Node Time

     0     0     cutoff    0        26.00000   26.00000  0.00%     -    0s

Explored 0 nodes (17 simplex iterations) in 0.02 seconds
Thread count was 8 (of 8 available processors)

Solution count 1: 26 

Optimal solution found (tolerance 1.00e-04)
Best objective 2.600000000000e+01, best bound 2.600000000000e+01, gap 0.0000%
